
Log started (V11.0.0) Mon May 19 21:56:53 2008

Tried aggregator 1 time.
Reduced MIP has 550 rows, 25001 columns, and 50050 nonzeros.
Presolve time =    0.19 sec.
Clique table members: 500.
MIP emphasis: balance optimality and feasibility.
MIP search method: dynamic search.
Parallel mode: none, using 1 thread.
Root relaxation solution time =    3.97 sec.

        Nodes                                         Cuts/
   Node  Left     Objective  IInf  Best Integer     Best Node    ItCnt     Gap

*     0+    0                        55087.0000     1000.9800     1070   98.18%
*     0+    0                         1003.0000     1000.9800     1070    0.20%
      0     0     1001.0000    74     1003.0000      Fract: 6     1091    0.20%
      0     2     1001.0000    74     1003.0000     1001.0000     1091    0.20%
    100    71    infeasible           1003.0000     1001.0000    15388    0.20%
    200    83     1002.0000    53     1003.0000     1001.0000    58334    0.20%
    300   107     1002.0000    67     1003.0000     1001.0000    95882    0.20%
*   400+   16                         1002.0000     1001.0000   138233    0.10%
    400    16     1002.0000    74     1002.0000     1001.0000   138233    0.10%
    500   116     1001.0000    66     1002.0000     1001.0000   141809    0.10%

Cover cuts applied:  7
Gomory fractional cuts applied:  10

Solution pool: 3 solutions saved.

MIP - Integer optimal solution:  Objective = 1.0020000000e+003
Solution time =  111.83 sec.  Iterations = 144117  Nodes = 513 (128)


Incumbent solution
Variable Name           Solution Value
Cmax                       1002.000000
X_1_34                        1.000000
X_2_24                        1.000000
X_3_49                        1.000000
X_4_27                        1.000000
X_5_9                         1.000000
X_6_41                        1.000000
X_7_5                         1.000000
X_8_35                        1.000000
X_9_4                         1.000000
X_10_41                       1.000000
X_11_27                       1.000000
X_12_35                       1.000000
X_13_17                       1.000000
X_14_49                       1.000000
X_15_40                       1.000000
X_16_35                       1.000000
X_17_23                       1.000000
X_18_17                       1.000000
X_19_11                       1.000000
X_20_29                       1.000000
X_21_32                       1.000000
X_22_9                        1.000000
X_23_30                       1.000000
X_24_48                       1.000000
X_25_18                       1.000000
X_26_18                       1.000000
X_27_47                       1.000000
X_28_2                        1.000000
X_29_21                       1.000000
X_30_28                       1.000000
X_31_23                       1.000000
X_32_26                       1.000000
X_33_29                       1.000000
X_34_32                       1.000000
X_35_14                       1.000000
X_36_32                       1.000000
X_37_25                       1.000000
X_38_36                       1.000000
X_39_37                       1.000000
X_40_5                        1.000000
X_41_21                       1.000000
X_42_35                       1.000000
X_43_12                       1.000000
X_44_50                       1.000000
X_45_44                       1.000000
X_46_39                       1.000000
X_47_22                       1.000000
X_48_36                       1.000000
X_49_19                       1.000000
X_50_10                       1.000000
X_51_21                       1.000000
X_52_31                       1.000000
X_53_15                       1.000000
X_54_41                       1.000000
X_55_17                       1.000000
X_56_24                       1.000000
X_57_13                       1.000000
X_58_8                        1.000000
X_59_49                       1.000000
X_60_41                       1.000000
X_61_42                       1.000000
X_62_3                        1.000000
X_63_43                       1.000000
X_64_15                       1.000000
X_65_33                       1.000000
X_66_16                       1.000000
X_67_25                       1.000000
X_68_48                       1.000000
X_69_16                       1.000000
X_70_37                       1.000000
X_71_49                       1.000000
X_72_14                       1.000000
X_73_2                        1.000000
X_74_28                       1.000000
X_75_17                       1.000000
X_76_46                       1.000000
X_77_10                       1.000000
X_78_13                       1.000000
X_79_7                        1.000000
X_80_48                       1.000000
X_81_1                        1.000000
X_82_45                       1.000000
X_83_1                        1.000000
X_84_5                        1.000000
X_85_19                       1.000000
X_86_14                       1.000000
X_87_25                       1.000000
X_88_11                       1.000000
X_89_46                       1.000000
X_90_2                        1.000000
X_91_41                       1.000000
X_92_30                       1.000000
X_93_15                       1.000000
X_94_37                       1.000000
X_95_12                       1.000000
X_96_28                       1.000000
X_97_25                       1.000000
X_98_32                       1.000000
X_99_31                       1.000000
X_100_26                      1.000000
X_101_44                      1.000000
X_102_44                      1.000000
X_103_43                      1.000000
X_104_38                      1.000000
X_105_24                      1.000000
X_106_24                      1.000000
X_107_3                       1.000000
X_108_31                      1.000000
X_109_8                       1.000000
X_110_13                      1.000000
X_111_26                      1.000000
X_112_21                      1.000000
X_113_23                      1.000000
X_114_48                      1.000000
X_115_17                      1.000000
X_116_20                      1.000000
X_117_32                      1.000000
X_118_25                      1.000000
X_119_22                      1.000000
X_120_46                      1.000000
X_121_13                      1.000000
X_122_30                      1.000000
X_123_10                      1.000000
X_124_11                      1.000000
X_125_34                      1.000000
X_126_47                      1.000000
X_127_48                      1.000000
X_128_50                      1.000000
X_129_5                       1.000000
X_130_47                      1.000000
X_131_49                      1.000000
X_132_12                      1.000000
X_133_38                      1.000000
X_134_44                      1.000000
X_135_28                      1.000000
X_136_32                      1.000000
X_137_49                      1.000000
X_138_23                      1.000000
X_139_9                       1.000000
X_140_14                      1.000000
X_141_42                      1.000000
X_142_16                      1.000000
X_143_16                      1.000000
X_144_36                      1.000000
X_145_24                      1.000000
X_146_40                      1.000000
X_147_25                      1.000000
X_148_37                      1.000000
X_149_32                      1.000000
X_150_45                      1.000000
X_151_30                      1.000000
X_152_18                      1.000000
X_153_21                      1.000000
X_154_3                       1.000000
X_155_29                      1.000000
X_156_5                       1.000000
X_157_7                       1.000000
X_158_37                      1.000000
X_159_27                      1.000000
X_160_26                      1.000000
X_161_37                      1.000000
X_162_45                      1.000000
X_163_5                       1.000000
X_164_50                      1.000000
X_165_15                      1.000000
X_166_44                      1.000000
X_167_37                      1.000000
X_168_26                      1.000000
X_169_35                      1.000000
X_170_15                      1.000000
X_171_8                       1.000000
X_172_50                      1.000000
X_173_33                      1.000000
X_174_26                      1.000000
X_175_34                      1.000000
X_176_45                      1.000000
X_177_44                      1.000000
X_178_39                      1.000000
X_179_12                      1.000000
X_180_34                      1.000000
X_181_9                       1.000000
X_182_9                       1.000000
X_183_45                      1.000000
X_184_34                      1.000000
X_185_3                       1.000000
X_186_14                      1.000000
X_187_39                      1.000000
X_188_2                       1.000000
X_189_5                       1.000000
X_190_6                       1.000000
X_191_6                       1.000000
X_192_27                      1.000000
X_193_34                      1.000000
X_194_8                       1.000000
X_195_40                      1.000000
X_196_33                      1.000000
X_197_47                      1.000000
X_198_20                      1.000000
X_199_16                      1.000000
X_200_18                      1.000000
X_201_19                      1.000000
X_202_16                      1.000000
X_203_6                       1.000000
X_204_38                      1.000000
X_205_29                      1.000000
X_206_47                      1.000000
X_207_4                       1.000000
X_208_13                      1.000000
X_209_23                      1.000000
X_210_35                      1.000000
X_211_8                       1.000000
X_212_20                      1.000000
X_213_44                      1.000000
X_214_2                       1.000000
X_215_33                      1.000000
X_216_39                      1.000000
X_217_26                      1.000000
X_218_47                      1.000000
X_219_11                      1.000000
X_220_26                      1.000000
X_221_7                       1.000000
X_222_8                       1.000000
X_223_24                      1.000000
X_224_15                      1.000000
X_225_18                      1.000000
X_226_31                      1.000000
X_227_49                      1.000000
X_228_33                      1.000000
X_229_36                      1.000000
X_230_15                      1.000000
X_231_43                      1.000000
X_232_35                      1.000000
X_233_20                      1.000000
X_234_15                      1.000000
X_235_7                       1.000000
X_236_14                      1.000000
X_237_39                      1.000000
X_238_48                      1.000000
X_239_22                      1.000000
X_240_1                       1.000000
X_241_37                      1.000000
X_242_35                      1.000000
X_243_48                      1.000000
X_244_23                      1.000000
X_245_19                      1.000000
X_246_27                      1.000000
X_247_39                      1.000000
X_248_32                      1.000000
X_249_19                      1.000000
X_250_28                      1.000000
X_251_48                      1.000000
X_252_15                      1.000000
X_253_20                      1.000000
X_254_34                      1.000000
X_255_18                      1.000000
X_256_31                      1.000000
X_257_25                      1.000000
X_258_6                       1.000000
X_259_8                       1.000000
X_260_6                       1.000000
X_261_2                       1.000000
X_262_30                      1.000000
X_263_26                      1.000000
X_264_13                      1.000000
X_265_8                       1.000000
X_266_40                      1.000000
X_267_3                       1.000000
X_268_25                      1.000000
X_269_23                      1.000000
X_270_4                       1.000000
X_271_18                      1.000000
X_272_16                      1.000000
X_273_38                      1.000000
X_274_1                       1.000000
X_275_4                       1.000000
X_276_30                      1.000000
X_277_12                      1.000000
X_278_39                      1.000000
X_279_10                      1.000000
X_280_35                      1.000000
X_281_8                       1.000000
X_282_40                      1.000000
X_283_33                      1.000000
X_284_22                      1.000000
X_285_17                      1.000000
X_286_46                      1.000000
X_287_7                       1.000000
X_288_4                       1.000000
X_289_41                      1.000000
X_290_10                      1.000000
X_291_36                      1.000000
X_292_18                      1.000000
X_293_17                      1.000000
X_294_46                      1.000000
X_295_27                      1.000000
X_296_50                      1.000000
X_297_42                      1.000000
X_298_33                      1.000000
X_299_4                       1.000000
X_300_6                       1.000000
X_301_39                      1.000000
X_302_16                      1.000000
X_303_6                       1.000000
X_304_14                      1.000000
X_305_4                       1.000000
X_306_7                       1.000000
X_307_28                      1.000000
X_308_20                      1.000000
X_309_23                      1.000000
X_310_16                      1.000000
X_311_4                       1.000000
X_312_11                      1.000000
X_313_49                      1.000000
X_314_25                      1.000000
X_315_34                      1.000000
X_316_20                      1.000000
X_317_18                      1.000000
X_318_33                      1.000000
X_319_49                      1.000000
X_320_35                      1.000000
X_321_43                      1.000000
X_322_19                      1.000000
X_323_27                      1.000000
X_324_47                      1.000000
X_325_43                      1.000000
X_326_13                      1.000000
X_327_29                      1.000000
X_328_3                       1.000000
X_329_40                      1.000000
X_330_40                      1.000000
X_331_15                      1.000000
X_332_38                      1.000000
X_333_30                      1.000000
X_334_19                      1.000000
X_335_30                      1.000000
X_336_45                      1.000000
X_337_39                      1.000000
X_338_44                      1.000000
X_339_21                      1.000000
X_340_3                       1.000000
X_341_12                      1.000000
X_342_43                      1.000000
X_343_26                      1.000000
X_344_11                      1.000000
X_345_12                      1.000000
X_346_45                      1.000000
X_347_6                       1.000000
X_348_43                      1.000000
X_349_33                      1.000000
X_350_19                      1.000000
X_351_36                      1.000000
X_352_3                       1.000000
X_353_11                      1.000000
X_354_16                      1.000000
X_355_42                      1.000000
X_356_9                       1.000000
X_357_9                       1.000000
X_358_23                      1.000000
X_359_22                      1.000000
X_360_37                      1.000000
X_361_5                       1.000000
X_362_6                       1.000000
X_363_45                      1.000000
X_364_11                      1.000000
X_365_50                      1.000000
X_366_48                      1.000000
X_367_29                      1.000000
X_368_14                      1.000000
X_369_33                      1.000000
X_370_23                      1.000000
X_371_43                      1.000000
X_372_50                      1.000000
X_373_29                      1.000000
X_374_37                      1.000000
X_375_46                      1.000000
X_376_49                      1.000000
X_377_40                      1.000000
X_378_50                      1.000000
X_379_11                      1.000000
X_380_9                       1.000000
X_381_17                      1.000000
X_382_48                      1.000000
X_383_7                       1.000000
X_384_7                       1.000000
X_385_19                      1.000000
X_386_40                      1.000000
X_387_20                      1.000000
X_388_41                      1.000000
X_389_11                      1.000000
X_390_3                       1.000000
X_391_21                      1.000000
X_392_10                      1.000000
X_393_1                       1.000000
X_394_39                      1.000000
X_395_4                       1.000000
X_396_20                      1.000000
X_397_3                       1.000000
X_398_36                      1.000000
X_399_41                      1.000000
X_400_17                      1.000000
X_401_17                      1.000000
X_402_28                      1.000000
X_403_38                      1.000000
X_404_22                      1.000000
X_405_29                      1.000000
X_406_47                      1.000000
X_407_43                      1.000000
X_408_13                      1.000000
X_409_10                      1.000000
X_410_41                      1.000000
X_411_42                      1.000000
X_412_24                      1.000000
X_413_38                      1.000000
X_414_47                      1.000000
X_415_29                      1.000000
X_416_9                       1.000000
X_417_36                      1.000000
X_418_38                      1.000000
X_419_2                       1.000000
X_420_31                      1.000000
X_421_24                      1.000000
X_422_40                      1.000000
X_423_10                      1.000000
X_424_32                      1.000000
X_425_42                      1.000000
X_426_10                      1.000000
X_427_31                      1.000000
X_428_22                      1.000000
X_429_46                      1.000000
X_430_46                      1.000000
X_431_45                      1.000000
X_432_50                      1.000000
X_433_44                      1.000000
X_434_5                       1.000000
X_435_1                       1.000000
X_436_24                      1.000000
X_437_13                      1.000000
X_438_9                       1.000000
X_439_6                       1.000000
X_440_36                      1.000000
X_441_46                      1.000000
X_442_2                       1.000000
X_443_36                      1.000000
X_444_20                      1.000000
X_445_24                      1.000000
X_446_50                      1.000000
X_447_42                      1.000000
X_448_18                      1.000000
X_449_38                      1.000000
X_450_32                      1.000000
X_451_27                      1.000000
X_452_42                      1.000000
X_453_8                       1.000000
X_454_19                      1.000000
X_455_31                      1.000000
X_456_2                       1.000000
X_457_4                       1.000000
X_458_1                       1.000000
X_459_10                      1.000000
X_460_28                      1.000000
X_461_47                      1.000000
X_462_2                       1.000000
X_463_12                      1.000000
X_464_25                      1.000000
X_465_1                       1.000000
X_466_41                      1.000000
X_467_42                      1.000000
X_468_21                      1.000000
X_469_42                      1.000000
X_470_1                       1.000000
X_471_1                       1.000000
X_472_45                      1.000000
X_473_43                      1.000000
X_474_34                      1.000000
X_475_21                      1.000000
X_476_7                       1.000000
X_477_30                      1.000000
X_478_27                      1.000000
X_479_28                      1.000000
X_480_44                      1.000000
X_481_22                      1.000000
X_482_13                      1.000000
X_483_12                      1.000000
X_484_22                      1.000000
X_485_29                      1.000000
X_486_34                      1.000000
X_487_5                       1.000000
X_488_31                      1.000000
X_489_27                      1.000000
X_490_46                      1.000000
X_491_12                      1.000000
X_492_14                      1.000000
X_493_7                       1.000000
X_494_28                      1.000000
X_495_14                      1.000000
X_496_22                      1.000000
X_497_30                      1.000000
X_498_38                      1.000000
X_499_21                      1.000000
X_500_31                      1.000000
All other variables in the range 1-25001 are 0.
